(set-logic QF_LRA)
(declare-fun X0 () Real )
(declare-fun Y0 () Real )
(declare-fun X1 () Real )
(declare-fun Y1 () Real )
(declare-fun X2 () Real )
(declare-fun Y2 () Real )
(declare-fun X3 () Real )
(declare-fun Y3 () Real )
(declare-fun X4 () Real )
(declare-fun Y4 () Real )
(declare-fun X5 () Real )
(declare-fun Y5 () Real )
(declare-fun X6 () Real )
(declare-fun Y6 () Real )
(declare-fun X7 () Real )
(declare-fun Y7 () Real )
(declare-fun X8 () Real )
(declare-fun Y8 () Real )
(declare-fun X9 () Real )
(declare-fun Y9 () Real )
(declare-fun X10 () Real )
(declare-fun Y10 () Real )
(declare-fun X11 () Real )
(declare-fun Y11 () Real )
(declare-fun Z () Real )
(declare-fun k () Real )
(assert (let
(( $goal (>= Z k) ))
(let
((
$phi ( and 
( or ( <= ( + X0 82 ) X1 )  ( <= ( + X1 77 ) X0 )  ( <= ( + Y0 43 ) Y1 )  ( <= ( + Y1 50 ) Y0 )  )
( or ( <= ( + X0 82 ) X2 )  ( <= ( + X2 57 ) X0 )  ( <= ( + Y0 43 ) Y2 )  ( <= ( + Y2 74 ) Y0 )  )
( or ( <= ( + X0 82 ) X3 )  ( <= ( + X3 4 ) X0 )  ( <= ( + Y0 43 ) Y3 )  ( <= ( + Y3 44 ) Y0 )  )
( or ( <= ( + X0 82 ) X4 )  ( <= ( + X4 6 ) X0 )  ( <= ( + Y0 43 ) Y4 )  ( <= ( + Y4 11 ) Y0 )  )
( or ( <= ( + X0 82 ) X5 )  ( <= ( + X5 51 ) X0 )  ( <= ( + Y0 43 ) Y5 )  ( <= ( + Y5 11 ) Y0 )  )
( or ( <= ( + X0 82 ) X6 )  ( <= ( + X6 59 ) X0 )  ( <= ( + Y0 43 ) Y6 )  ( <= ( + Y6 32 ) Y0 )  )
( or ( <= ( + X0 82 ) X7 )  ( <= ( + X7 62 ) X0 )  ( <= ( + Y0 43 ) Y7 )  ( <= ( + Y7 25 ) Y0 )  )
( or ( <= ( + X0 82 ) X8 )  ( <= ( + X8 88 ) X0 )  ( <= ( + Y0 43 ) Y8 )  ( <= ( + Y8 76 ) Y0 )  )
( or ( <= ( + X0 82 ) X9 )  ( <= ( + X9 95 ) X0 )  ( <= ( + Y0 43 ) Y9 )  ( <= ( + Y9 46 ) Y0 )  )
( or ( <= ( + X0 82 ) X10 )  ( <= ( + X10 44 ) X0 )  ( <= ( + Y0 43 ) Y10 )  ( <= ( + Y10 72 ) Y0 )  )
( or ( <= ( + X0 82 ) X11 )  ( <= ( + X11 90 ) X0 )  ( <= ( + Y0 43 ) Y11 )  ( <= ( + Y11 6 ) Y0 )  )
( or ( <= ( + X1 77 ) X2 )  ( <= ( + X2 57 ) X1 )  ( <= ( + Y1 50 ) Y2 )  ( <= ( + Y2 74 ) Y1 )  )
( or ( <= ( + X1 77 ) X3 )  ( <= ( + X3 4 ) X1 )  ( <= ( + Y1 50 ) Y3 )  ( <= ( + Y3 44 ) Y1 )  )
( or ( <= ( + X1 77 ) X4 )  ( <= ( + X4 6 ) X1 )  ( <= ( + Y1 50 ) Y4 )  ( <= ( + Y4 11 ) Y1 )  )
( or ( <= ( + X1 77 ) X5 )  ( <= ( + X5 51 ) X1 )  ( <= ( + Y1 50 ) Y5 )  ( <= ( + Y5 11 ) Y1 )  )
( or ( <= ( + X1 77 ) X6 )  ( <= ( + X6 59 ) X1 )  ( <= ( + Y1 50 ) Y6 )  ( <= ( + Y6 32 ) Y1 )  )
( or ( <= ( + X1 77 ) X7 )  ( <= ( + X7 62 ) X1 )  ( <= ( + Y1 50 ) Y7 )  ( <= ( + Y7 25 ) Y1 )  )
( or ( <= ( + X1 77 ) X8 )  ( <= ( + X8 88 ) X1 )  ( <= ( + Y1 50 ) Y8 )  ( <= ( + Y8 76 ) Y1 )  )
( or ( <= ( + X1 77 ) X9 )  ( <= ( + X9 95 ) X1 )  ( <= ( + Y1 50 ) Y9 )  ( <= ( + Y9 46 ) Y1 )  )
( or ( <= ( + X1 77 ) X10 )  ( <= ( + X10 44 ) X1 )  ( <= ( + Y1 50 ) Y10 )  ( <= ( + Y10 72 ) Y1 )  )
( or ( <= ( + X1 77 ) X11 )  ( <= ( + X11 90 ) X1 )  ( <= ( + Y1 50 ) Y11 )  ( <= ( + Y11 6 ) Y1 )  )
( or ( <= ( + X2 57 ) X3 )  ( <= ( + X3 4 ) X2 )  ( <= ( + Y2 74 ) Y3 )  ( <= ( + Y3 44 ) Y2 )  )
( or ( <= ( + X2 57 ) X4 )  ( <= ( + X4 6 ) X2 )  ( <= ( + Y2 74 ) Y4 )  ( <= ( + Y4 11 ) Y2 )  )
( or ( <= ( + X2 57 ) X5 )  ( <= ( + X5 51 ) X2 )  ( <= ( + Y2 74 ) Y5 )  ( <= ( + Y5 11 ) Y2 )  )
( or ( <= ( + X2 57 ) X6 )  ( <= ( + X6 59 ) X2 )  ( <= ( + Y2 74 ) Y6 )  ( <= ( + Y6 32 ) Y2 )  )
( or ( <= ( + X2 57 ) X7 )  ( <= ( + X7 62 ) X2 )  ( <= ( + Y2 74 ) Y7 )  ( <= ( + Y7 25 ) Y2 )  )
( or ( <= ( + X2 57 ) X8 )  ( <= ( + X8 88 ) X2 )  ( <= ( + Y2 74 ) Y8 )  ( <= ( + Y8 76 ) Y2 )  )
( or ( <= ( + X2 57 ) X9 )  ( <= ( + X9 95 ) X2 )  ( <= ( + Y2 74 ) Y9 )  ( <= ( + Y9 46 ) Y2 )  )
( or ( <= ( + X2 57 ) X10 )  ( <= ( + X10 44 ) X2 )  ( <= ( + Y2 74 ) Y10 )  ( <= ( + Y10 72 ) Y2 )  )
( or ( <= ( + X2 57 ) X11 )  ( <= ( + X11 90 ) X2 )  ( <= ( + Y2 74 ) Y11 )  ( <= ( + Y11 6 ) Y2 )  )
( or ( <= ( + X3 4 ) X4 )  ( <= ( + X4 6 ) X3 )  ( <= ( + Y3 44 ) Y4 )  ( <= ( + Y4 11 ) Y3 )  )
( or ( <= ( + X3 4 ) X5 )  ( <= ( + X5 51 ) X3 )  ( <= ( + Y3 44 ) Y5 )  ( <= ( + Y5 11 ) Y3 )  )
( or ( <= ( + X3 4 ) X6 )  ( <= ( + X6 59 ) X3 )  ( <= ( + Y3 44 ) Y6 )  ( <= ( + Y6 32 ) Y3 )  )
( or ( <= ( + X3 4 ) X7 )  ( <= ( + X7 62 ) X3 )  ( <= ( + Y3 44 ) Y7 )  ( <= ( + Y7 25 ) Y3 )  )
( or ( <= ( + X3 4 ) X8 )  ( <= ( + X8 88 ) X3 )  ( <= ( + Y3 44 ) Y8 )  ( <= ( + Y8 76 ) Y3 )  )
( or ( <= ( + X3 4 ) X9 )  ( <= ( + X9 95 ) X3 )  ( <= ( + Y3 44 ) Y9 )  ( <= ( + Y9 46 ) Y3 )  )
( or ( <= ( + X3 4 ) X10 )  ( <= ( + X10 44 ) X3 )  ( <= ( + Y3 44 ) Y10 )  ( <= ( + Y10 72 ) Y3 )  )
( or ( <= ( + X3 4 ) X11 )  ( <= ( + X11 90 ) X3 )  ( <= ( + Y3 44 ) Y11 )  ( <= ( + Y11 6 ) Y3 )  )
( or ( <= ( + X4 6 ) X5 )  ( <= ( + X5 51 ) X4 )  ( <= ( + Y4 11 ) Y5 )  ( <= ( + Y5 11 ) Y4 )  )
( or ( <= ( + X4 6 ) X6 )  ( <= ( + X6 59 ) X4 )  ( <= ( + Y4 11 ) Y6 )  ( <= ( + Y6 32 ) Y4 )  )
( or ( <= ( + X4 6 ) X7 )  ( <= ( + X7 62 ) X4 )  ( <= ( + Y4 11 ) Y7 )  ( <= ( + Y7 25 ) Y4 )  )
( or ( <= ( + X4 6 ) X8 )  ( <= ( + X8 88 ) X4 )  ( <= ( + Y4 11 ) Y8 )  ( <= ( + Y8 76 ) Y4 )  )
( or ( <= ( + X4 6 ) X9 )  ( <= ( + X9 95 ) X4 )  ( <= ( + Y4 11 ) Y9 )  ( <= ( + Y9 46 ) Y4 )  )
( or ( <= ( + X4 6 ) X10 )  ( <= ( + X10 44 ) X4 )  ( <= ( + Y4 11 ) Y10 )  ( <= ( + Y10 72 ) Y4 )  )
( or ( <= ( + X4 6 ) X11 )  ( <= ( + X11 90 ) X4 )  ( <= ( + Y4 11 ) Y11 )  ( <= ( + Y11 6 ) Y4 )  )
( or ( <= ( + X5 51 ) X6 )  ( <= ( + X6 59 ) X5 )  ( <= ( + Y5 11 ) Y6 )  ( <= ( + Y6 32 ) Y5 )  )
( or ( <= ( + X5 51 ) X7 )  ( <= ( + X7 62 ) X5 )  ( <= ( + Y5 11 ) Y7 )  ( <= ( + Y7 25 ) Y5 )  )
( or ( <= ( + X5 51 ) X8 )  ( <= ( + X8 88 ) X5 )  ( <= ( + Y5 11 ) Y8 )  ( <= ( + Y8 76 ) Y5 )  )
( or ( <= ( + X5 51 ) X9 )  ( <= ( + X9 95 ) X5 )  ( <= ( + Y5 11 ) Y9 )  ( <= ( + Y9 46 ) Y5 )  )
( or ( <= ( + X5 51 ) X10 )  ( <= ( + X10 44 ) X5 )  ( <= ( + Y5 11 ) Y10 )  ( <= ( + Y10 72 ) Y5 )  )
( or ( <= ( + X5 51 ) X11 )  ( <= ( + X11 90 ) X5 )  ( <= ( + Y5 11 ) Y11 )  ( <= ( + Y11 6 ) Y5 )  )
( or ( <= ( + X6 59 ) X7 )  ( <= ( + X7 62 ) X6 )  ( <= ( + Y6 32 ) Y7 )  ( <= ( + Y7 25 ) Y6 )  )
( or ( <= ( + X6 59 ) X8 )  ( <= ( + X8 88 ) X6 )  ( <= ( + Y6 32 ) Y8 )  ( <= ( + Y8 76 ) Y6 )  )
( or ( <= ( + X6 59 ) X9 )  ( <= ( + X9 95 ) X6 )  ( <= ( + Y6 32 ) Y9 )  ( <= ( + Y9 46 ) Y6 )  )
( or ( <= ( + X6 59 ) X10 )  ( <= ( + X10 44 ) X6 )  ( <= ( + Y6 32 ) Y10 )  ( <= ( + Y10 72 ) Y6 )  )
( or ( <= ( + X6 59 ) X11 )  ( <= ( + X11 90 ) X6 )  ( <= ( + Y6 32 ) Y11 )  ( <= ( + Y11 6 ) Y6 )  )
( or ( <= ( + X7 62 ) X8 )  ( <= ( + X8 88 ) X7 )  ( <= ( + Y7 25 ) Y8 )  ( <= ( + Y8 76 ) Y7 )  )
( or ( <= ( + X7 62 ) X9 )  ( <= ( + X9 95 ) X7 )  ( <= ( + Y7 25 ) Y9 )  ( <= ( + Y9 46 ) Y7 )  )
( or ( <= ( + X7 62 ) X10 )  ( <= ( + X10 44 ) X7 )  ( <= ( + Y7 25 ) Y10 )  ( <= ( + Y10 72 ) Y7 )  )
( or ( <= ( + X7 62 ) X11 )  ( <= ( + X11 90 ) X7 )  ( <= ( + Y7 25 ) Y11 )  ( <= ( + Y11 6 ) Y7 )  )
( or ( <= ( + X8 88 ) X9 )  ( <= ( + X9 95 ) X8 )  ( <= ( + Y8 76 ) Y9 )  ( <= ( + Y9 46 ) Y8 )  )
( or ( <= ( + X8 88 ) X10 )  ( <= ( + X10 44 ) X8 )  ( <= ( + Y8 76 ) Y10 )  ( <= ( + Y10 72 ) Y8 )  )
( or ( <= ( + X8 88 ) X11 )  ( <= ( + X11 90 ) X8 )  ( <= ( + Y8 76 ) Y11 )  ( <= ( + Y11 6 ) Y8 )  )
( or ( <= ( + X9 95 ) X10 )  ( <= ( + X10 44 ) X9 )  ( <= ( + Y9 46 ) Y10 )  ( <= ( + Y10 72 ) Y9 )  )
( or ( <= ( + X9 95 ) X11 )  ( <= ( + X11 90 ) X9 )  ( <= ( + Y9 46 ) Y11 )  ( <= ( + Y11 6 ) Y9 )  )
( or ( <= ( + X10 44 ) X11 )  ( <= ( + X11 90 ) X10 )  ( <= ( + Y10 72 ) Y11 )  ( <= ( + Y11 6 ) Y10 )  )
( >= X0 0)
( <= ( + X0 82) Z)
( >= Y0 0)
( <= ( + Y0 43 ) 173)
( >= X1 0)
( <= ( + X1 77) Z)
( >= Y1 0)
( <= ( + Y1 50 ) 173)
( >= X2 0)
( <= ( + X2 57) Z)
( >= Y2 0)
( <= ( + Y2 74 ) 173)
( >= X3 0)
( <= ( + X3 4) Z)
( >= Y3 0)
( <= ( + Y3 44 ) 173)
( >= X4 0)
( <= ( + X4 6) Z)
( >= Y4 0)
( <= ( + Y4 11 ) 173)
( >= X5 0)
( <= ( + X5 51) Z)
( >= Y5 0)
( <= ( + Y5 11 ) 173)
( >= X6 0)
( <= ( + X6 59) Z)
( >= Y6 0)
( <= ( + Y6 32 ) 173)
( >= X7 0)
( <= ( + X7 62) Z)
( >= Y7 0)
( <= ( + Y7 25 ) 173)
( >= X8 0)
( <= ( + X8 88) Z)
( >= Y8 0)
( <= ( + Y8 76 ) 173)
( >= X9 0)
( <= ( + X9 95) Z)
( >= Y9 0)
( <= ( + Y9 46 ) 173)
( >= X10 0)
( <= ( + X10 44) Z)
( >= Y10 0)
( <= ( + Y10 72 ) 173)
( >= X11 0)
( <= ( + X11 90) Z)
( >= Y11 0)
( <= ( + Y11 6 ) 173)
) )
)(=> $phi $goal))))